letting initialStacks = [1, 10, 36, 22, 42, 16, 48, 35, 26, 20, 7, 9, 17, 2, 32, 11, 47, 28, 12, 31, 3, 19, 50, 29, 39, 46, 43, 13, 23, 27, 18, 4, 8, 41, 49, 25, 14, 34, 24, 15, 38, 40, 33, 44, 5, 37, 45, 21, 51, 6, 30]
